
Gurobi 6.0.4 (win64) logging started 06/12/15 17:24:31

Read LP format model from file E:\Eigene Dateien\Downloads\Michi shit\VRPTWMS-master\VRPTWMS\instances\mip\fuel\N8-C_DV100-C_SV25_F5_3_No_1.lp
Reading time = 0.00 seconds
(null): 417 rows, 208 columns, 1715 nonzeros
Optimize a model with 417 rows, 208 columns and 1715 nonzeros
Model has 576 quadratic constraints
WARNING: Only barrier available for SOCP models
Coefficient statistics:
  Matrix range    [1e+00, 1e+02]
  Objective range [1e+01, 1e+03]
  Bounds range    [1e+00, 1e+02]
  RHS range       [1e+00, 1e+02]
Presolve removed 54 rows and 36 columns
Presolve time: 0.03s
Presolved: 1145 rows, 581 columns, 5671 nonzeros
Variable types: 372 continuous, 209 integer (166 binary)
Found heuristic solution: objective 9501.5600000
Optimize a model with 1145 rows, 581 columns and 5671 nonzeros
Coefficient statistics:
  Matrix range    [1e+00, 1e+02]
  Objective range [1e+01, 1e+03]
  Bounds range    [1e+00, 1e+02]
  RHS range       [1e+00, 1e+02]

Concurrent LP optimizer: dual simplex and barrier
Showing barrier log only...

Presolve removed 127 rows and 78 columns
Presolved: 1018 rows, 507 columns, 5087 nonzeros

Root barrier log...

Ordering time: 0.00s

Barrier performed 0 iterations in 0.05 seconds
Barrier solve interrupted - model solved by another algorithm


Solved with dual simplex
Solved in 30 iterations and 0.05 seconds
Optimal objective  2.217660000e+03

Root relaxation: objective 2.217660e+03, 30 iterations, 0.02 seconds

    Nodes    |    Current Node    |     Objective Bounds      |     Work
 Expl Unexpl |  Obj  Depth IntInf | Incumbent    BestBd   Gap | It/Node Time

     0     0 2217.66000    0    8 9501.56000 2217.66000  76.7%     -    0s
H    0     0                    5416.8400000 2217.66000  59.1%     -    0s
     0     0 2226.67182    0   28 5416.84000 2226.67182  58.9%     -    0s
     0     0 2239.55568    0   16 5416.84000 2239.55568  58.7%     -    0s
     0     0 2240.70356    0   34 5416.84000 2240.70356  58.6%     -    0s
     0     0 2242.11429    0   37 5416.84000 2242.11429  58.6%     -    0s
     0     0 2242.17667    0   33 5416.84000 2242.17667  58.6%     -    0s
H    0     0                    4351.1500000 2242.17667  48.5%     -    0s
     0     0 2242.17667    0   29 4351.15000 2242.17667  48.5%     -    0s
     0     2 2242.17667    0   28 4351.15000 2242.17667  48.5%     -    0s
H  221   117                    3332.5400000 2261.14000  32.1%  29.3    0s
* 1201   193              18    3310.1000000 2343.62109  29.2%  25.2    0s
H 1838    28                    3309.8100000 2701.43892  18.4%  22.7    0s

Cutting planes:
  Learned: 1
  Cover: 197
  Implied bound: 93
  Clique: 3
  MIR: 29
  GUB cover: 1
  Zero half: 5

Explored 1926 nodes (42614 simplex iterations) in 0.73 seconds
Thread count was 4 (of 4 available processors)

Optimal solution found (tolerance 1.00e-04)
Best objective 3.309810000000e+03, best bound 3.309810000000e+03, gap 0.0%
k_c1	5.000000000000028
k_c2	11.0
k_c3	89.99999999999991
k_c4	17.0
k_c5	92.0
k_c6	83.99999999999987
k_c7	86.99999999999991
k_c8	8.000000000000028
k_dN	-0.0
o_1	-0.0
o_2	-0.0
o_3	-0.0
o_4	-0.0
o_5	0.0
o_6	-0.0
o_7	-0.0
o_8	-0.0
p_1	-0.0
p_2	1.0
p_3	-0.0
p_4	0.0
p_5	1.0
p_6	0.0
p_7	1.0
p_8	0.0
phi_c1	1.0
phi_c2	0.0
phi_c3	2.0
phi_c4	1.0
phi_c5	4.0
phi_c6	3.0
phi_c7	0.0
phi_c8	2.0
phi_dN	-0.0
pi_c1	-0.0
pi_c2	5.000000000000011
pi_c3	-0.0
pi_c4	-0.0
pi_c5	21.0
pi_c6	-0.0
pi_c7	10.00000000000001
pi_c8	-0.0
pi_dN	-0.0
tauD_c1	85.0
tauD_c2	65.0
tauD_c3	36.0
tauD_c4	45.0
tauD_c5	10.0
tauD_c6	25.0
tauD_c7	50.0
tauD_c8	73.0
tauD_d0	-0.0
tauD_dN	100.0
tauS_c1	89.0
tauS_c2	73.0
tauS_c3	83.0
tauS_c4	83.0
tauS_c5	6.0
tauS_c6	85.0
tauS_c7	31.0
tauS_c8	86.0
tauS_d0	-0.0
tauS_dN	87.0
x_c1_dN	1.0
x_c2_c1	1.0
x_c3_c7	1.0
x_c4_c2	1.0
x_c5_c3	1.0
x_c6_c4	1.0
x_c7_c8	1.0
x_c8_dN	1.0
x_d0_c5	1.0
x_d0_c6	1.0
z_c2_dN	1.0
z_c5_c7	1.0
z_c7_c2	1.0
z_d0_c5	1.0
